##TITLE=Calibrated dsDNA Standard (1.83/2.48)
##JCAMP-DX=4.24
##DATA TYPE=UV/VIS SPECTRUM
##XUNITS=Wavelength (nm)
##YUNITS=Absorbance
##FIRSTX=220.0
##LASTX=350.0
##FIRSTY=1.400
##NPOINTS=131
##XYPOINTS=(XY..XY)
220, 1.400
221, 1.305
222, 1.218
223, 1.140
224, 1.072
225, 1.011
226, 0.958
227, 0.912
228, 0.874
229, 0.843
230, 0.820
231, 0.806
232, 0.801
233, 0.806
234, 0.822
235, 0.849
236, 0.887
237, 0.936
238, 0.995
239, 1.063
240, 1.139
241, 1.221
242, 1.308
243, 1.398
244, 1.489
245, 1.579
246, 1.666
247, 1.748
248, 1.824
249, 1.891
250, 1.948
251, 1.993
252, 2.026
253, 2.046
254, 2.054
255, 2.048
256, 2.035
257, 2.015
258, 1.988
259, 1.956
260, 2.034
261, 1.985
262, 1.932
263, 1.874
264, 1.813
265, 1.748
266, 1.681
267, 1.611
268, 1.541
269, 1.470
270, 1.399
271, 1.328
272, 1.259
273, 1.192
274, 1.127
275, 1.066
276, 1.007
277, 0.952
278, 0.901
279, 0.854
280, 1.112
281, 1.055
282, 0.995
283, 0.932
284, 0.867
285, 0.801
286, 0.736
287, 0.672
288, 0.611
289, 0.552
290, 0.496
291, 0.444
292, 0.395
293, 0.350
294, 0.309
295, 0.272
296, 0.238
297, 0.207
298, 0.180
299, 0.155
300, 0.134
301, 0.115
302, 0.098
303, 0.084
304, 0.071
305, 0.060
306, 0.051
307, 0.043
308, 0.036
309, 0.030
310, 0.025
311, 0.020
312, 0.017
313, 0.013
314, 0.011
315, 0.009
316, 0.007
317, 0.005
318, 0.004
319, 0.003
320, 0.002
321, 0.002
322, 0.001
323, 0.001
324, 0.001
325, 0.001
326, 0.000
327, 0.000
328, 0.000
329, 0.000
330, 0.000
331, 0.000
332, 0.000
333, 0.000
334, 0.000
335, 0.000
336, 0.000
337, 0.000
338, 0.000
339, 0.000
340, 0.000
341, 0.000
342, 0.000
343, 0.000
344, 0.000
345, 0.000
346, 0.000
347, 0.000
348, 0.000
349, 0.000
350, 0.000
##END=