##TITLE=Standard Pure dsDNA Spectrum
##JCAMP-DX=4.24
##DATA TYPE=UV/VIS SPECTRUM
##XUNITS=Wavelength (nm)
##YUNITS=Absorbance
##FIRSTX=220.0
##LASTX=350.0
##FIRSTY=0.920
##NPOINTS=131
##XYPOINTS=(XY..XY)
220, 0.920
221, 0.852
222, 0.791
223, 0.738
224, 0.692
225, 0.655
226, 0.625
227, 0.603
228, 0.589
229, 0.582
230, 0.581
231, 0.587
232, 0.599
233, 0.619
234, 0.647
235, 0.683
236, 0.728
237, 0.781
238, 0.842
239, 0.912
240, 0.988
241, 1.071
242, 1.158
243, 1.248
244, 1.340
245, 1.431
246, 1.520
247, 1.605
248, 1.684
249, 1.756
250, 1.819
251, 1.872
252, 1.914
253, 1.945
254, 1.965
255, 1.974
256, 1.972
257, 1.961
258, 1.940
259, 1.911
260, 1.875
261, 1.832
262, 1.782
263, 1.727
264, 1.668
265, 1.605
266, 1.539
267, 1.470
268, 1.400
269, 1.329
270, 1.258
271, 1.188
272, 1.119
273, 1.052
274, 0.988
275, 0.925
276, 0.866
277, 0.809
278, 0.756
279, 0.706
280, 0.659
281, 0.615
282, 0.574
283, 0.536
284, 0.501
285, 0.468
286, 0.437
287, 0.408
288, 0.380
289, 0.354
290, 0.329
291, 0.305
292, 0.282
293, 0.260
294, 0.240
295, 0.220
296, 0.201
297, 0.183
298, 0.166
299, 0.150
300, 0.135
301, 0.120
302, 0.107
303, 0.095
304, 0.084
305, 0.073
306, 0.064
307, 0.056
308, 0.048
309, 0.041
310, 0.035
311, 0.030
312, 0.025
313, 0.021
314, 0.017
315, 0.014
316, 0.012
317, 0.009
318, 0.008
319, 0.006
320, 0.005
321, 0.004
322, 0.003
323, 0.002
324, 0.002
325, 0.001
326, 0.001
327, 0.001
328, 0.001
329, 0.000
330, 0.000
331, 0.000
332, 0.000
333, 0.000
334, 0.000
335, 0.000
336, 0.000
337, 0.000
338, 0.000
339, 0.000
340, 0.000
341, 0.000
342, 0.000
343, 0.000
344, 0.000
345, 0.000
346, 0.000
347, 0.000
348, 0.000
349, 0.000
350, 0.000
##END=